1 5 75 2
0 140
0 140
 0 40 40 0  0 0 0
 1 22 22 0 18 1 2 1 2
 2 36 26 0 26 1 2 1 2
 3 21 45 0 11 1 2 1 2
 4 45 35 0 30 1 2 1 2
 5 55 20 0 21 1 2 1 2
 6 33 34 0 19 1 2 1 2
 7 50 50 0 15 1 2 1 2
 8 55 45 0 16 1 2 1 2
 9 26 59 0 29 1 2 1 2
10 40 66 0 26 1 2 1 2
11 55 65 0 37 1 2 1 2
12 35 51 0 16 1 2 1 2
13 62 35 0 12 1 2 1 2
14 62 57 0 31 1 2 1 2
15 62 24 0  8 1 2 1 2
16 21 36 0 19 1 2 1 2
17 33 44 0 20 1 2 1 2
18  9 56 0 13 1 2 1 2
19 62 48 0 15 1 2 1 2
20 66 14 0 22 1 2 1 2
21 44 13 0 28 1 2 1 2
22 26 13 0 12 1 2 1 2
23 11 28 0  6 1 2 1 2
24  7 43 0 27 1 2 1 2
25 17 64 0 14 1 2 1 2
26 41 46 0 18 1 2 1 2
27 55 34 0 17 1 2 1 2
28 35 16 0 29 1 2 1 2
29 52 26 0 13 1 2 1 2
30 43 26 0 22 1 2 1 2
31 31 76 0 25 1 2 1 2
32 22 53 0 28 1 2 1 2
33 26 29 0 27 1 2 1 2
34 50 40 0 19 1 2 1 2
35 55 50 0 10 1 2 1 2
36 54 10 0 12 1 2 1 2
37 60 15 0 14 1 2 1 2
38 47 66 0 24 1 2 1 2
39 30 60 0 16 1 2 1 2
40 30 50 0 33 1 2 1 2
41 12 17 0 15 1 2 1 2
42 15 14 0 11 1 2 1 2
43 16 19 0 18 1 2 1 2
44 21 48 0 17 1 2 1 2
45 50 30 0 21 1 2 1 2
46 51 42 0 27 1 2 1 2
47 50 15 0 19 1 2 1 2
48 48 21 0 20 1 2 1 2
49 12 38 0  5 1 2 1 2
50 15 56 0 22 1 2 1 2
51 29 39 0 12 1 2 1 2
52 54 38 0 19 1 2 1 2
53 55 57 0 22 1 2 1 2
54 67 41 0 16 1 2 1 2
55 10 70 0  7 1 2 1 2
56  6 25 0 26 1 2 1 2
57 65 27 0 14 1 2 1 2
58 40 60 0 21 1 2 1 2
59 70 64 0 24 1 2 1 2
60 64  4 0 13 1 2 1 2
61 36  6 0 15 1 2 1 2
62 30 20 0 18 1 2 1 2
63 20 30 0 11 1 2 1 2
64 15  5 0 28 1 2 1 2
65 50 70 0  9 1 2 1 2
66 57 72 0 37 1 2 1 2
67 45 42 0 30 1 2 1 2
68 38 33 0 10 1 2 1 2
69 50  4 0  8 1 2 1 2
70 66  8 0 11 1 2 1 2
71 59  5 0  3 1 2 1 2
72 35 60 0  1 1 2 1 2
73 27 24 0  6 1 2 1 2
74 40 20 0 10 1 2 1 2
75 40 37 0 20 1 2 1 2

